
;this file is automatically generated: Wed Apr 21 11:03:36 CST 2021

;declarations generated

(declare-fun oclExcludes ( Int Int) Bool)
(declare-fun Cardinality ( Int) Int)
(declare-fun type_c0781ada_929c_46e6_b822_04e5bc383b60_Class21 ( Int) Bool)
(declare-fun type_c0781ada_929c_46e6_b822_04e5bc383b60_Class20 ( Int) Bool)
(declare-fun type_c0781ada_929c_46e6_b822_04e5bc383b60_Class23 ( Int) Bool)
(declare-fun type_c0781ada_929c_46e6_b822_04e5bc383b60_Class22 ( Int) Bool)
(declare-fun type_c0781ada_929c_46e6_b822_04e5bc383b60_Class25 ( Int) Bool)
(declare-fun type_c0781ada_929c_46e6_b822_04e5bc383b60_Class24 ( Int) Bool)
(declare-fun type_c0781ada_929c_46e6_b822_04e5bc383b60_Class27 ( Int) Bool)
(declare-fun type_c0781ada_929c_46e6_b822_04e5bc383b60_Class26 ( Int) Bool)
(declare-fun type_c0781ada_929c_46e6_b822_04e5bc383b60_Class29 ( Int) Bool)
(declare-fun type_c0781ada_929c_46e6_b822_04e5bc383b60_Class28 ( Int) Bool)
(declare-fun type_c0781ada_929c_46e6_b822_04e5bc383b60_Class30 ( Int) Bool)
(declare-fun type_c0781ada_929c_46e6_b822_04e5bc383b60_Class32 ( Int) Bool)
(declare-fun type_c0781ada_929c_46e6_b822_04e5bc383b60_Class31 ( Int) Bool)
(declare-fun type_c0781ada_929c_46e6_b822_04e5bc383b60_Class34 ( Int) Bool)
(declare-fun type_c0781ada_929c_46e6_b822_04e5bc383b60_Class33 ( Int) Bool)
(declare-fun type_c0781ada_929c_46e6_b822_04e5bc383b60_Class36 ( Int) Bool)
(declare-fun type_c0781ada_929c_46e6_b822_04e5bc383b60_Class35 ( Int) Bool)
(declare-fun type_c0781ada_929c_46e6_b822_04e5bc383b60_Class38 ( Int) Bool)
(declare-fun type_c0781ada_929c_46e6_b822_04e5bc383b60_Class37 ( Int) Bool)
(declare-fun type_c0781ada_929c_46e6_b822_04e5bc383b60_Class39 ( Int) Bool)
(declare-fun type_c0781ada_929c_46e6_b822_04e5bc383b60_Class41 ( Int) Bool)
(declare-fun type_c0781ada_929c_46e6_b822_04e5bc383b60_Class40 ( Int) Bool)
(declare-fun type_c0781ada_929c_46e6_b822_04e5bc383b60_Class43 ( Int) Bool)
(declare-fun type_c0781ada_929c_46e6_b822_04e5bc383b60_Class42 ( Int) Bool)
(declare-fun type_c0781ada_929c_46e6_b822_04e5bc383b60_Class45 ( Int) Bool)
(declare-fun type_c0781ada_929c_46e6_b822_04e5bc383b60_Class44 ( Int) Bool)
(declare-fun type_c0781ada_929c_46e6_b822_04e5bc383b60_Class47 ( Int) Bool)
(declare-fun type_c0781ada_929c_46e6_b822_04e5bc383b60_Class46 ( Int) Bool)
(declare-fun type_c0781ada_929c_46e6_b822_04e5bc383b60_Class49 ( Int) Bool)
(declare-fun type_c0781ada_929c_46e6_b822_04e5bc383b60_Class48 ( Int) Bool)
(declare-fun type_c0781ada_929c_46e6_b822_04e5bc383b60_Class50 ( Int) Bool)
(declare-fun type_c0781ada_929c_46e6_b822_04e5bc383b60_Class52 ( Int) Bool)
(declare-fun type_c0781ada_929c_46e6_b822_04e5bc383b60_Class51 ( Int) Bool)
(declare-fun type_c0781ada_929c_46e6_b822_04e5bc383b60_Class54 ( Int) Bool)
(declare-fun type_c0781ada_929c_46e6_b822_04e5bc383b60_Class53 ( Int) Bool)
(declare-fun type_c0781ada_929c_46e6_b822_04e5bc383b60_Class56 ( Int) Bool)
(declare-fun type_c0781ada_929c_46e6_b822_04e5bc383b60_Class55 ( Int) Bool)
(declare-fun type_c0781ada_929c_46e6_b822_04e5bc383b60_Class10 ( Int) Bool)
(declare-fun type_c0781ada_929c_46e6_b822_04e5bc383b60_Class12 ( Int) Bool)
(declare-fun type_c0781ada_929c_46e6_b822_04e5bc383b60_Class11 ( Int) Bool)
(declare-fun type_c0781ada_929c_46e6_b822_04e5bc383b60_Class14 ( Int) Bool)
(declare-fun type_c0781ada_929c_46e6_b822_04e5bc383b60_Class13 ( Int) Bool)
(declare-fun type_c0781ada_929c_46e6_b822_04e5bc383b60_Class16 ( Int) Bool)
(declare-fun type_c0781ada_929c_46e6_b822_04e5bc383b60_Class15 ( Int) Bool)
(declare-fun type_c0781ada_929c_46e6_b822_04e5bc383b60_Class18 ( Int) Bool)
(declare-fun type_c0781ada_929c_46e6_b822_04e5bc383b60_Class17 ( Int) Bool)
(declare-fun type_c0781ada_929c_46e6_b822_04e5bc383b60_Class19 ( Int) Bool)
(declare-fun class54_Class54IntAttr1 ( Int) Int)
(declare-fun oclSelect ( Int Bool) Int)
(declare-fun type_c0781ada_929c_46e6_b822_04e5bc383b60_Class2 ( Int) Bool)
(declare-fun type_c0781ada_929c_46e6_b822_04e5bc383b60_Class3 ( Int) Bool)
(declare-fun type_c0781ada_929c_46e6_b822_04e5bc383b60_Class4 ( Int) Bool)
(declare-fun type_c0781ada_929c_46e6_b822_04e5bc383b60_Class5 ( Int) Bool)
(declare-fun type_c0781ada_929c_46e6_b822_04e5bc383b60_Class0 ( Int) Bool)
(declare-fun type_c0781ada_929c_46e6_b822_04e5bc383b60_Class1 ( Int) Bool)
(declare-fun type_c0781ada_929c_46e6_b822_04e5bc383b60_Class6 ( Int) Bool)
(declare-fun type_c0781ada_929c_46e6_b822_04e5bc383b60_Class7 ( Int) Bool)
(declare-fun type_c0781ada_929c_46e6_b822_04e5bc383b60_Class8 ( Int) Bool)
(declare-fun Enum0 ( Int) Int)
(declare-fun type_c0781ada_929c_46e6_b822_04e5bc383b60_Class9 ( Int) Bool)
(declare-fun Enum1 ( Int) Int)
(declare-fun Enum2 ( Int) Int)
(declare-fun container_ ( Int) Int)
(declare-fun obj_62067773_a87c_49d3_ae36_e3dd1899c34f ( Int) Int)
(declare-fun oclIncludes ( Int Int) Bool)
(declare-fun ObjAt ( Int Int) Int)

;formula(s) generated
(assert (! (exists ((c1 Int)) (and (and (and (and (and (and ( type_c0781ada_929c_46e6_b822_04e5bc383b60_Class54 c1 )  ( type_c0781ada_929c_46e6_b822_04e5bc383b60_Class36 c1 ) ) ( type_c0781ada_929c_46e6_b822_04e5bc383b60_Class35 c1 ) ) ( type_c0781ada_929c_46e6_b822_04e5bc383b60_Class27 c1 ) ) ( type_c0781ada_929c_46e6_b822_04e5bc383b60_Class15 c1 ) ) ( type_c0781ada_929c_46e6_b822_04e5bc383b60_Class28 c1 ) ) (<= ( class54_Class54IntAttr1 ( obj_62067773_a87c_49d3_ae36_e3dd1899c34f c1 )  )  5))):named l0))
(assert (! (forall ((v Int)) (=> (and (and (and (and (and ( type_c0781ada_929c_46e6_b822_04e5bc383b60_Class54 v )  ( type_c0781ada_929c_46e6_b822_04e5bc383b60_Class36 v ) ) ( type_c0781ada_929c_46e6_b822_04e5bc383b60_Class35 v ) ) ( type_c0781ada_929c_46e6_b822_04e5bc383b60_Class27 v ) ) ( type_c0781ada_929c_46e6_b822_04e5bc383b60_Class15 v ) ) ( type_c0781ada_929c_46e6_b822_04e5bc383b60_Class28 v ) ) (not (= ( class54_Class54IntAttr1 ( obj_62067773_a87c_49d3_ae36_e3dd1899c34f v )  )  11) ))):named l1))
(assert (! (exists ((o Int)) (and (and (and (and (and (and ( type_c0781ada_929c_46e6_b822_04e5bc383b60_Class0 ( obj_62067773_a87c_49d3_ae36_e3dd1899c34f o )  )  ( type_c0781ada_929c_46e6_b822_04e5bc383b60_Class44 ( obj_62067773_a87c_49d3_ae36_e3dd1899c34f o )  ) ) ( type_c0781ada_929c_46e6_b822_04e5bc383b60_Class36 ( obj_62067773_a87c_49d3_ae36_e3dd1899c34f o )  ) ) ( type_c0781ada_929c_46e6_b822_04e5bc383b60_Class35 ( obj_62067773_a87c_49d3_ae36_e3dd1899c34f o )  ) ) ( type_c0781ada_929c_46e6_b822_04e5bc383b60_Class27 ( obj_62067773_a87c_49d3_ae36_e3dd1899c34f o )  ) ) ( type_c0781ada_929c_46e6_b822_04e5bc383b60_Class15 ( obj_62067773_a87c_49d3_ae36_e3dd1899c34f o )  ) ) ( type_c0781ada_929c_46e6_b822_04e5bc383b60_Class28 ( obj_62067773_a87c_49d3_ae36_e3dd1899c34f o )  ) )):named c0))
(assert (! (exists ((o Int)) ( type_c0781ada_929c_46e6_b822_04e5bc383b60_Class1 ( obj_62067773_a87c_49d3_ae36_e3dd1899c34f o )  ) ):named c1))
(assert (! (exists ((o Int)) (and (and ( type_c0781ada_929c_46e6_b822_04e5bc383b60_Class10 ( obj_62067773_a87c_49d3_ae36_e3dd1899c34f o )  )  ( type_c0781ada_929c_46e6_b822_04e5bc383b60_Class15 ( obj_62067773_a87c_49d3_ae36_e3dd1899c34f o )  ) ) ( type_c0781ada_929c_46e6_b822_04e5bc383b60_Class21 ( obj_62067773_a87c_49d3_ae36_e3dd1899c34f o )  ) )):named c2))
(assert (! (exists ((o Int)) ( type_c0781ada_929c_46e6_b822_04e5bc383b60_Class11 ( obj_62067773_a87c_49d3_ae36_e3dd1899c34f o )  ) ):named c3))
(assert (! (exists ((o Int)) (and (and ( type_c0781ada_929c_46e6_b822_04e5bc383b60_Class12 ( obj_62067773_a87c_49d3_ae36_e3dd1899c34f o )  )  ( type_c0781ada_929c_46e6_b822_04e5bc383b60_Class33 ( obj_62067773_a87c_49d3_ae36_e3dd1899c34f o )  ) ) ( type_c0781ada_929c_46e6_b822_04e5bc383b60_Class15 ( obj_62067773_a87c_49d3_ae36_e3dd1899c34f o )  ) )):named c4))
(assert (! (exists ((o Int)) ( type_c0781ada_929c_46e6_b822_04e5bc383b60_Class13 ( obj_62067773_a87c_49d3_ae36_e3dd1899c34f o )  ) ):named c5))
(assert (! (exists ((o Int)) (and (and (and (and (and (and ( type_c0781ada_929c_46e6_b822_04e5bc383b60_Class14 ( obj_62067773_a87c_49d3_ae36_e3dd1899c34f o )  )  ( type_c0781ada_929c_46e6_b822_04e5bc383b60_Class36 ( obj_62067773_a87c_49d3_ae36_e3dd1899c34f o )  ) ) ( type_c0781ada_929c_46e6_b822_04e5bc383b60_Class35 ( obj_62067773_a87c_49d3_ae36_e3dd1899c34f o )  ) ) ( type_c0781ada_929c_46e6_b822_04e5bc383b60_Class27 ( obj_62067773_a87c_49d3_ae36_e3dd1899c34f o )  ) ) ( type_c0781ada_929c_46e6_b822_04e5bc383b60_Class9 ( obj_62067773_a87c_49d3_ae36_e3dd1899c34f o )  ) ) ( type_c0781ada_929c_46e6_b822_04e5bc383b60_Class15 ( obj_62067773_a87c_49d3_ae36_e3dd1899c34f o )  ) ) ( type_c0781ada_929c_46e6_b822_04e5bc383b60_Class28 ( obj_62067773_a87c_49d3_ae36_e3dd1899c34f o )  ) )):named c6))
(assert (! (exists ((o Int)) ( type_c0781ada_929c_46e6_b822_04e5bc383b60_Class15 ( obj_62067773_a87c_49d3_ae36_e3dd1899c34f o )  ) ):named c7))
(assert (! (exists ((o Int)) ( type_c0781ada_929c_46e6_b822_04e5bc383b60_Class16 ( obj_62067773_a87c_49d3_ae36_e3dd1899c34f o )  ) ):named c8))
(assert (! (exists ((o Int)) (and (and (and (and (and (and ( type_c0781ada_929c_46e6_b822_04e5bc383b60_Class17 ( obj_62067773_a87c_49d3_ae36_e3dd1899c34f o )  )  ( type_c0781ada_929c_46e6_b822_04e5bc383b60_Class44 ( obj_62067773_a87c_49d3_ae36_e3dd1899c34f o )  ) ) ( type_c0781ada_929c_46e6_b822_04e5bc383b60_Class36 ( obj_62067773_a87c_49d3_ae36_e3dd1899c34f o )  ) ) ( type_c0781ada_929c_46e6_b822_04e5bc383b60_Class35 ( obj_62067773_a87c_49d3_ae36_e3dd1899c34f o )  ) ) ( type_c0781ada_929c_46e6_b822_04e5bc383b60_Class27 ( obj_62067773_a87c_49d3_ae36_e3dd1899c34f o )  ) ) ( type_c0781ada_929c_46e6_b822_04e5bc383b60_Class15 ( obj_62067773_a87c_49d3_ae36_e3dd1899c34f o )  ) ) ( type_c0781ada_929c_46e6_b822_04e5bc383b60_Class28 ( obj_62067773_a87c_49d3_ae36_e3dd1899c34f o )  ) )):named c9))
(assert (! (exists ((o Int)) ( type_c0781ada_929c_46e6_b822_04e5bc383b60_Class18 ( obj_62067773_a87c_49d3_ae36_e3dd1899c34f o )  ) ):named c10))
(assert (! (exists ((o Int)) (and (and (and (and (and (and ( type_c0781ada_929c_46e6_b822_04e5bc383b60_Class19 ( obj_62067773_a87c_49d3_ae36_e3dd1899c34f o )  )  ( type_c0781ada_929c_46e6_b822_04e5bc383b60_Class36 ( obj_62067773_a87c_49d3_ae36_e3dd1899c34f o )  ) ) ( type_c0781ada_929c_46e6_b822_04e5bc383b60_Class35 ( obj_62067773_a87c_49d3_ae36_e3dd1899c34f o )  ) ) ( type_c0781ada_929c_46e6_b822_04e5bc383b60_Class27 ( obj_62067773_a87c_49d3_ae36_e3dd1899c34f o )  ) ) ( type_c0781ada_929c_46e6_b822_04e5bc383b60_Class9 ( obj_62067773_a87c_49d3_ae36_e3dd1899c34f o )  ) ) ( type_c0781ada_929c_46e6_b822_04e5bc383b60_Class15 ( obj_62067773_a87c_49d3_ae36_e3dd1899c34f o )  ) ) ( type_c0781ada_929c_46e6_b822_04e5bc383b60_Class28 ( obj_62067773_a87c_49d3_ae36_e3dd1899c34f o )  ) )):named c11))
(assert (! (exists ((o Int)) (and (and (and (and (and (and ( type_c0781ada_929c_46e6_b822_04e5bc383b60_Class2 ( obj_62067773_a87c_49d3_ae36_e3dd1899c34f o )  )  ( type_c0781ada_929c_46e6_b822_04e5bc383b60_Class36 ( obj_62067773_a87c_49d3_ae36_e3dd1899c34f o )  ) ) ( type_c0781ada_929c_46e6_b822_04e5bc383b60_Class35 ( obj_62067773_a87c_49d3_ae36_e3dd1899c34f o )  ) ) ( type_c0781ada_929c_46e6_b822_04e5bc383b60_Class27 ( obj_62067773_a87c_49d3_ae36_e3dd1899c34f o )  ) ) ( type_c0781ada_929c_46e6_b822_04e5bc383b60_Class15 ( obj_62067773_a87c_49d3_ae36_e3dd1899c34f o )  ) ) ( type_c0781ada_929c_46e6_b822_04e5bc383b60_Class28 ( obj_62067773_a87c_49d3_ae36_e3dd1899c34f o )  ) ) ( type_c0781ada_929c_46e6_b822_04e5bc383b60_Class54 ( obj_62067773_a87c_49d3_ae36_e3dd1899c34f o )  ) )):named c12))
(assert (! (exists ((o Int)) (and ( type_c0781ada_929c_46e6_b822_04e5bc383b60_Class20 ( obj_62067773_a87c_49d3_ae36_e3dd1899c34f o )  )  ( type_c0781ada_929c_46e6_b822_04e5bc383b60_Class15 ( obj_62067773_a87c_49d3_ae36_e3dd1899c34f o )  ) )):named c13))
(assert (! (exists ((o Int)) (and ( type_c0781ada_929c_46e6_b822_04e5bc383b60_Class21 ( obj_62067773_a87c_49d3_ae36_e3dd1899c34f o )  )  ( type_c0781ada_929c_46e6_b822_04e5bc383b60_Class15 ( obj_62067773_a87c_49d3_ae36_e3dd1899c34f o )  ) )):named c14))
(assert (! (exists ((o Int)) (and (and (and ( type_c0781ada_929c_46e6_b822_04e5bc383b60_Class22 ( obj_62067773_a87c_49d3_ae36_e3dd1899c34f o )  )  ( type_c0781ada_929c_46e6_b822_04e5bc383b60_Class15 ( obj_62067773_a87c_49d3_ae36_e3dd1899c34f o )  ) ) ( type_c0781ada_929c_46e6_b822_04e5bc383b60_Class48 ( obj_62067773_a87c_49d3_ae36_e3dd1899c34f o )  ) ) ( type_c0781ada_929c_46e6_b822_04e5bc383b60_Class43 ( obj_62067773_a87c_49d3_ae36_e3dd1899c34f o )  ) )):named c15))
(assert (! (exists ((o Int)) ( type_c0781ada_929c_46e6_b822_04e5bc383b60_Class23 ( obj_62067773_a87c_49d3_ae36_e3dd1899c34f o )  ) ):named c16))
(assert (! (exists ((o Int)) ( type_c0781ada_929c_46e6_b822_04e5bc383b60_Class24 ( obj_62067773_a87c_49d3_ae36_e3dd1899c34f o )  ) ):named c17))
(assert (! (exists ((o Int)) (and (and (and ( type_c0781ada_929c_46e6_b822_04e5bc383b60_Class25 ( obj_62067773_a87c_49d3_ae36_e3dd1899c34f o )  )  ( type_c0781ada_929c_46e6_b822_04e5bc383b60_Class12 ( obj_62067773_a87c_49d3_ae36_e3dd1899c34f o )  ) ) ( type_c0781ada_929c_46e6_b822_04e5bc383b60_Class33 ( obj_62067773_a87c_49d3_ae36_e3dd1899c34f o )  ) ) ( type_c0781ada_929c_46e6_b822_04e5bc383b60_Class15 ( obj_62067773_a87c_49d3_ae36_e3dd1899c34f o )  ) )):named c18))
(assert (! (exists ((o Int)) ( type_c0781ada_929c_46e6_b822_04e5bc383b60_Class26 ( obj_62067773_a87c_49d3_ae36_e3dd1899c34f o )  ) ):named c19))
(assert (! (exists ((o Int)) (and ( type_c0781ada_929c_46e6_b822_04e5bc383b60_Class27 ( obj_62067773_a87c_49d3_ae36_e3dd1899c34f o )  )  ( type_c0781ada_929c_46e6_b822_04e5bc383b60_Class15 ( obj_62067773_a87c_49d3_ae36_e3dd1899c34f o )  ) )):named c20))
(assert (! (exists ((o Int)) (and (and ( type_c0781ada_929c_46e6_b822_04e5bc383b60_Class28 ( obj_62067773_a87c_49d3_ae36_e3dd1899c34f o )  )  ( type_c0781ada_929c_46e6_b822_04e5bc383b60_Class27 ( obj_62067773_a87c_49d3_ae36_e3dd1899c34f o )  ) ) ( type_c0781ada_929c_46e6_b822_04e5bc383b60_Class15 ( obj_62067773_a87c_49d3_ae36_e3dd1899c34f o )  ) )):named c21))
(assert (! (exists ((o Int)) (and (and (and (and (and ( type_c0781ada_929c_46e6_b822_04e5bc383b60_Class29 ( obj_62067773_a87c_49d3_ae36_e3dd1899c34f o )  )  ( type_c0781ada_929c_46e6_b822_04e5bc383b60_Class36 ( obj_62067773_a87c_49d3_ae36_e3dd1899c34f o )  ) ) ( type_c0781ada_929c_46e6_b822_04e5bc383b60_Class35 ( obj_62067773_a87c_49d3_ae36_e3dd1899c34f o )  ) ) ( type_c0781ada_929c_46e6_b822_04e5bc383b60_Class27 ( obj_62067773_a87c_49d3_ae36_e3dd1899c34f o )  ) ) ( type_c0781ada_929c_46e6_b822_04e5bc383b60_Class15 ( obj_62067773_a87c_49d3_ae36_e3dd1899c34f o )  ) ) ( type_c0781ada_929c_46e6_b822_04e5bc383b60_Class28 ( obj_62067773_a87c_49d3_ae36_e3dd1899c34f o )  ) )):named c22))
(assert (! (exists ((o Int)) ( type_c0781ada_929c_46e6_b822_04e5bc383b60_Class3 ( obj_62067773_a87c_49d3_ae36_e3dd1899c34f o )  ) ):named c23))
(assert (! (exists ((o Int)) (and (and ( type_c0781ada_929c_46e6_b822_04e5bc383b60_Class30 ( obj_62067773_a87c_49d3_ae36_e3dd1899c34f o )  )  ( type_c0781ada_929c_46e6_b822_04e5bc383b60_Class33 ( obj_62067773_a87c_49d3_ae36_e3dd1899c34f o )  ) ) ( type_c0781ada_929c_46e6_b822_04e5bc383b60_Class15 ( obj_62067773_a87c_49d3_ae36_e3dd1899c34f o )  ) )):named c24))
(assert (! (exists ((o Int)) (and (and (and (and (and (and ( type_c0781ada_929c_46e6_b822_04e5bc383b60_Class31 ( obj_62067773_a87c_49d3_ae36_e3dd1899c34f o )  )  ( type_c0781ada_929c_46e6_b822_04e5bc383b60_Class36 ( obj_62067773_a87c_49d3_ae36_e3dd1899c34f o )  ) ) ( type_c0781ada_929c_46e6_b822_04e5bc383b60_Class35 ( obj_62067773_a87c_49d3_ae36_e3dd1899c34f o )  ) ) ( type_c0781ada_929c_46e6_b822_04e5bc383b60_Class27 ( obj_62067773_a87c_49d3_ae36_e3dd1899c34f o )  ) ) ( type_c0781ada_929c_46e6_b822_04e5bc383b60_Class15 ( obj_62067773_a87c_49d3_ae36_e3dd1899c34f o )  ) ) ( type_c0781ada_929c_46e6_b822_04e5bc383b60_Class28 ( obj_62067773_a87c_49d3_ae36_e3dd1899c34f o )  ) ) ( type_c0781ada_929c_46e6_b822_04e5bc383b60_Class54 ( obj_62067773_a87c_49d3_ae36_e3dd1899c34f o )  ) )):named c25))
(assert (! (exists ((o Int)) ( type_c0781ada_929c_46e6_b822_04e5bc383b60_Class32 ( obj_62067773_a87c_49d3_ae36_e3dd1899c34f o )  ) ):named c26))
(assert (! (exists ((o Int)) (and ( type_c0781ada_929c_46e6_b822_04e5bc383b60_Class33 ( obj_62067773_a87c_49d3_ae36_e3dd1899c34f o )  )  ( type_c0781ada_929c_46e6_b822_04e5bc383b60_Class15 ( obj_62067773_a87c_49d3_ae36_e3dd1899c34f o )  ) )):named c27))
(assert (! (exists ((o Int)) ( type_c0781ada_929c_46e6_b822_04e5bc383b60_Class34 ( obj_62067773_a87c_49d3_ae36_e3dd1899c34f o )  ) ):named c28))
(assert (! (exists ((o Int)) (and (and (and (and ( type_c0781ada_929c_46e6_b822_04e5bc383b60_Class35 ( obj_62067773_a87c_49d3_ae36_e3dd1899c34f o )  )  ( type_c0781ada_929c_46e6_b822_04e5bc383b60_Class36 ( obj_62067773_a87c_49d3_ae36_e3dd1899c34f o )  ) ) ( type_c0781ada_929c_46e6_b822_04e5bc383b60_Class27 ( obj_62067773_a87c_49d3_ae36_e3dd1899c34f o )  ) ) ( type_c0781ada_929c_46e6_b822_04e5bc383b60_Class15 ( obj_62067773_a87c_49d3_ae36_e3dd1899c34f o )  ) ) ( type_c0781ada_929c_46e6_b822_04e5bc383b60_Class28 ( obj_62067773_a87c_49d3_ae36_e3dd1899c34f o )  ) )):named c29))
(assert (! (exists ((o Int)) (and (and (and ( type_c0781ada_929c_46e6_b822_04e5bc383b60_Class36 ( obj_62067773_a87c_49d3_ae36_e3dd1899c34f o )  )  ( type_c0781ada_929c_46e6_b822_04e5bc383b60_Class27 ( obj_62067773_a87c_49d3_ae36_e3dd1899c34f o )  ) ) ( type_c0781ada_929c_46e6_b822_04e5bc383b60_Class15 ( obj_62067773_a87c_49d3_ae36_e3dd1899c34f o )  ) ) ( type_c0781ada_929c_46e6_b822_04e5bc383b60_Class28 ( obj_62067773_a87c_49d3_ae36_e3dd1899c34f o )  ) )):named c30))
(assert (! (exists ((o Int)) (and ( type_c0781ada_929c_46e6_b822_04e5bc383b60_Class37 ( obj_62067773_a87c_49d3_ae36_e3dd1899c34f o )  )  ( type_c0781ada_929c_46e6_b822_04e5bc383b60_Class15 ( obj_62067773_a87c_49d3_ae36_e3dd1899c34f o )  ) )):named c31))
(assert (! (exists ((o Int)) (and (and (and (and ( type_c0781ada_929c_46e6_b822_04e5bc383b60_Class38 ( obj_62067773_a87c_49d3_ae36_e3dd1899c34f o )  )  ( type_c0781ada_929c_46e6_b822_04e5bc383b60_Class22 ( obj_62067773_a87c_49d3_ae36_e3dd1899c34f o )  ) ) ( type_c0781ada_929c_46e6_b822_04e5bc383b60_Class15 ( obj_62067773_a87c_49d3_ae36_e3dd1899c34f o )  ) ) ( type_c0781ada_929c_46e6_b822_04e5bc383b60_Class48 ( obj_62067773_a87c_49d3_ae36_e3dd1899c34f o )  ) ) ( type_c0781ada_929c_46e6_b822_04e5bc383b60_Class43 ( obj_62067773_a87c_49d3_ae36_e3dd1899c34f o )  ) )):named c32))
(assert (! (exists ((o Int)) ( type_c0781ada_929c_46e6_b822_04e5bc383b60_Class39 ( obj_62067773_a87c_49d3_ae36_e3dd1899c34f o )  ) ):named c33))
(assert (! (exists ((o Int)) (and (and (and (and (and (and ( type_c0781ada_929c_46e6_b822_04e5bc383b60_Class4 ( obj_62067773_a87c_49d3_ae36_e3dd1899c34f o )  )  ( type_c0781ada_929c_46e6_b822_04e5bc383b60_Class44 ( obj_62067773_a87c_49d3_ae36_e3dd1899c34f o )  ) ) ( type_c0781ada_929c_46e6_b822_04e5bc383b60_Class36 ( obj_62067773_a87c_49d3_ae36_e3dd1899c34f o )  ) ) ( type_c0781ada_929c_46e6_b822_04e5bc383b60_Class35 ( obj_62067773_a87c_49d3_ae36_e3dd1899c34f o )  ) ) ( type_c0781ada_929c_46e6_b822_04e5bc383b60_Class27 ( obj_62067773_a87c_49d3_ae36_e3dd1899c34f o )  ) ) ( type_c0781ada_929c_46e6_b822_04e5bc383b60_Class15 ( obj_62067773_a87c_49d3_ae36_e3dd1899c34f o )  ) ) ( type_c0781ada_929c_46e6_b822_04e5bc383b60_Class28 ( obj_62067773_a87c_49d3_ae36_e3dd1899c34f o )  ) )):named c34))
(assert (! (exists ((o Int)) ( type_c0781ada_929c_46e6_b822_04e5bc383b60_Class40 ( obj_62067773_a87c_49d3_ae36_e3dd1899c34f o )  ) ):named c35))
(assert (! (exists ((o Int)) ( type_c0781ada_929c_46e6_b822_04e5bc383b60_Class41 ( obj_62067773_a87c_49d3_ae36_e3dd1899c34f o )  ) ):named c36))
(assert (! (exists ((o Int)) ( type_c0781ada_929c_46e6_b822_04e5bc383b60_Class42 ( obj_62067773_a87c_49d3_ae36_e3dd1899c34f o )  ) ):named c37))
(assert (! (exists ((o Int)) (and ( type_c0781ada_929c_46e6_b822_04e5bc383b60_Class43 ( obj_62067773_a87c_49d3_ae36_e3dd1899c34f o )  )  ( type_c0781ada_929c_46e6_b822_04e5bc383b60_Class15 ( obj_62067773_a87c_49d3_ae36_e3dd1899c34f o )  ) )):named c38))
(assert (! (exists ((o Int)) (and (and (and (and (and ( type_c0781ada_929c_46e6_b822_04e5bc383b60_Class44 ( obj_62067773_a87c_49d3_ae36_e3dd1899c34f o )  )  ( type_c0781ada_929c_46e6_b822_04e5bc383b60_Class36 ( obj_62067773_a87c_49d3_ae36_e3dd1899c34f o )  ) ) ( type_c0781ada_929c_46e6_b822_04e5bc383b60_Class35 ( obj_62067773_a87c_49d3_ae36_e3dd1899c34f o )  ) ) ( type_c0781ada_929c_46e6_b822_04e5bc383b60_Class27 ( obj_62067773_a87c_49d3_ae36_e3dd1899c34f o )  ) ) ( type_c0781ada_929c_46e6_b822_04e5bc383b60_Class15 ( obj_62067773_a87c_49d3_ae36_e3dd1899c34f o )  ) ) ( type_c0781ada_929c_46e6_b822_04e5bc383b60_Class28 ( obj_62067773_a87c_49d3_ae36_e3dd1899c34f o )  ) )):named c39))
(assert (! (exists ((o Int)) (and (and (and (and (and (and ( type_c0781ada_929c_46e6_b822_04e5bc383b60_Class45 ( obj_62067773_a87c_49d3_ae36_e3dd1899c34f o )  )  ( type_c0781ada_929c_46e6_b822_04e5bc383b60_Class36 ( obj_62067773_a87c_49d3_ae36_e3dd1899c34f o )  ) ) ( type_c0781ada_929c_46e6_b822_04e5bc383b60_Class35 ( obj_62067773_a87c_49d3_ae36_e3dd1899c34f o )  ) ) ( type_c0781ada_929c_46e6_b822_04e5bc383b60_Class27 ( obj_62067773_a87c_49d3_ae36_e3dd1899c34f o )  ) ) ( type_c0781ada_929c_46e6_b822_04e5bc383b60_Class9 ( obj_62067773_a87c_49d3_ae36_e3dd1899c34f o )  ) ) ( type_c0781ada_929c_46e6_b822_04e5bc383b60_Class15 ( obj_62067773_a87c_49d3_ae36_e3dd1899c34f o )  ) ) ( type_c0781ada_929c_46e6_b822_04e5bc383b60_Class28 ( obj_62067773_a87c_49d3_ae36_e3dd1899c34f o )  ) )):named c40))
(assert (! (exists ((o Int)) (and (and ( type_c0781ada_929c_46e6_b822_04e5bc383b60_Class46 ( obj_62067773_a87c_49d3_ae36_e3dd1899c34f o )  )  ( type_c0781ada_929c_46e6_b822_04e5bc383b60_Class15 ( obj_62067773_a87c_49d3_ae36_e3dd1899c34f o )  ) ) ( type_c0781ada_929c_46e6_b822_04e5bc383b60_Class5 ( obj_62067773_a87c_49d3_ae36_e3dd1899c34f o )  ) )):named c41))
(assert (! (exists ((o Int)) ( type_c0781ada_929c_46e6_b822_04e5bc383b60_Class47 ( obj_62067773_a87c_49d3_ae36_e3dd1899c34f o )  ) ):named c42))
(assert (! (exists ((o Int)) (and ( type_c0781ada_929c_46e6_b822_04e5bc383b60_Class48 ( obj_62067773_a87c_49d3_ae36_e3dd1899c34f o )  )  ( type_c0781ada_929c_46e6_b822_04e5bc383b60_Class15 ( obj_62067773_a87c_49d3_ae36_e3dd1899c34f o )  ) )):named c43))
(assert (! (exists ((o Int)) ( type_c0781ada_929c_46e6_b822_04e5bc383b60_Class49 ( obj_62067773_a87c_49d3_ae36_e3dd1899c34f o )  ) ):named c44))
(assert (! (exists ((o Int)) (and ( type_c0781ada_929c_46e6_b822_04e5bc383b60_Class5 ( obj_62067773_a87c_49d3_ae36_e3dd1899c34f o )  )  ( type_c0781ada_929c_46e6_b822_04e5bc383b60_Class15 ( obj_62067773_a87c_49d3_ae36_e3dd1899c34f o )  ) )):named c45))
(assert (! (exists ((o Int)) ( type_c0781ada_929c_46e6_b822_04e5bc383b60_Class50 ( obj_62067773_a87c_49d3_ae36_e3dd1899c34f o )  ) ):named c46))
(assert (! (exists ((o Int)) ( type_c0781ada_929c_46e6_b822_04e5bc383b60_Class51 ( obj_62067773_a87c_49d3_ae36_e3dd1899c34f o )  ) ):named c47))
(assert (! (exists ((o Int)) ( type_c0781ada_929c_46e6_b822_04e5bc383b60_Class52 ( obj_62067773_a87c_49d3_ae36_e3dd1899c34f o )  ) ):named c48))
(assert (! (exists ((o Int)) ( type_c0781ada_929c_46e6_b822_04e5bc383b60_Class53 ( obj_62067773_a87c_49d3_ae36_e3dd1899c34f o )  ) ):named c49))
(assert (! (exists ((o Int)) (and (and (and (and (and ( type_c0781ada_929c_46e6_b822_04e5bc383b60_Class54 ( obj_62067773_a87c_49d3_ae36_e3dd1899c34f o )  )  ( type_c0781ada_929c_46e6_b822_04e5bc383b60_Class36 ( obj_62067773_a87c_49d3_ae36_e3dd1899c34f o )  ) ) ( type_c0781ada_929c_46e6_b822_04e5bc383b60_Class35 ( obj_62067773_a87c_49d3_ae36_e3dd1899c34f o )  ) ) ( type_c0781ada_929c_46e6_b822_04e5bc383b60_Class27 ( obj_62067773_a87c_49d3_ae36_e3dd1899c34f o )  ) ) ( type_c0781ada_929c_46e6_b822_04e5bc383b60_Class15 ( obj_62067773_a87c_49d3_ae36_e3dd1899c34f o )  ) ) ( type_c0781ada_929c_46e6_b822_04e5bc383b60_Class28 ( obj_62067773_a87c_49d3_ae36_e3dd1899c34f o )  ) )):named c50))
(assert (! (exists ((o Int)) ( type_c0781ada_929c_46e6_b822_04e5bc383b60_Class55 ( obj_62067773_a87c_49d3_ae36_e3dd1899c34f o )  ) ):named c51))
(assert (! (exists ((o Int)) ( type_c0781ada_929c_46e6_b822_04e5bc383b60_Class56 ( obj_62067773_a87c_49d3_ae36_e3dd1899c34f o )  ) ):named c52))
(assert (! (exists ((o Int)) (and (and (and (and ( type_c0781ada_929c_46e6_b822_04e5bc383b60_Class6 ( obj_62067773_a87c_49d3_ae36_e3dd1899c34f o )  )  ( type_c0781ada_929c_46e6_b822_04e5bc383b60_Class22 ( obj_62067773_a87c_49d3_ae36_e3dd1899c34f o )  ) ) ( type_c0781ada_929c_46e6_b822_04e5bc383b60_Class15 ( obj_62067773_a87c_49d3_ae36_e3dd1899c34f o )  ) ) ( type_c0781ada_929c_46e6_b822_04e5bc383b60_Class48 ( obj_62067773_a87c_49d3_ae36_e3dd1899c34f o )  ) ) ( type_c0781ada_929c_46e6_b822_04e5bc383b60_Class43 ( obj_62067773_a87c_49d3_ae36_e3dd1899c34f o )  ) )):named c53))
(assert (! (exists ((o Int)) ( type_c0781ada_929c_46e6_b822_04e5bc383b60_Class7 ( obj_62067773_a87c_49d3_ae36_e3dd1899c34f o )  ) ):named c54))
(assert (! (exists ((o Int)) ( type_c0781ada_929c_46e6_b822_04e5bc383b60_Class8 ( obj_62067773_a87c_49d3_ae36_e3dd1899c34f o )  ) ):named c55))
(assert (! (exists ((o Int)) (and (and (and (and (and ( type_c0781ada_929c_46e6_b822_04e5bc383b60_Class9 ( obj_62067773_a87c_49d3_ae36_e3dd1899c34f o )  )  ( type_c0781ada_929c_46e6_b822_04e5bc383b60_Class36 ( obj_62067773_a87c_49d3_ae36_e3dd1899c34f o )  ) ) ( type_c0781ada_929c_46e6_b822_04e5bc383b60_Class35 ( obj_62067773_a87c_49d3_ae36_e3dd1899c34f o )  ) ) ( type_c0781ada_929c_46e6_b822_04e5bc383b60_Class27 ( obj_62067773_a87c_49d3_ae36_e3dd1899c34f o )  ) ) ( type_c0781ada_929c_46e6_b822_04e5bc383b60_Class15 ( obj_62067773_a87c_49d3_ae36_e3dd1899c34f o )  ) ) ( type_c0781ada_929c_46e6_b822_04e5bc383b60_Class28 ( obj_62067773_a87c_49d3_ae36_e3dd1899c34f o )  ) )):named c56))

 ;end of formula 